c turning on binary mode checking
c parsing input formula with 259840 variables and 1039924 clauses
c finished parsing, read 23486909 bytes from proof file
c detected empty clause; start verification via backward checking
c 12542 of 1039924 clauses in core                            
c 16485 of 603626 lemmas in core using 100892 resolution steps
c 0 RAT lemmas in core; 721 redundant literals in core lemmas
s VERIFIED
c verification time: 2.824 seconds
